NAME: tsp50_20
COMMENT: 50-tsp problem (Padberg/Rinaldi)
TYPE: TSP
DIMENSION: 50
EDGE_WEIGHT_TYPE : EUC_2D
NODE_COORD_SECTION
1 4 13
2 7 20
3 29 8
4 25 15
5 37 6
6 4 19
7 30 4
8 11 40
9 16 30
10 19 38
11 37 37
12 17 15
13 32 9
14 4 10
15 16 17
16 29 11
17 22 29
18 8 27
19 34 4
20 26 26
21 20 18
22 0 9
23 38 32
24 28 21
25 33 40
26 16 39
27 26 12
28 26 33
29 36 18
30 14 24
31 28 24
32 10 40
33 33 0
34 19 2
35 33 10
36 8 0
37 12 8
38 31 6
39 5 5
40 8 21
41 36 13
42 35 6
43 0 18
44 5 26
45 23 7
46 35 36
47 22 13
48 10 32
49 9 0
50 22 8
